solKeccakMAC384c768.sol
# Objective value = 66
X0Y1Z0 0
X0Y2Z0 0
X1Y1Z0 0
X1Y2Z0 0
X2Y0Z0 1
X2Y1Z0 1
X2Y2Z0 1
X3Y0Z0 0
X3Y1Z0 0
X4Y0Z0 0
X4Y1Z0 0
X0Y1Z1 0
X0Y2Z1 0
X1Y1Z1 0
X1Y2Z1 0
X2Y0Z1 1
X2Y1Z1 1
X2Y2Z1 1
X3Y0Z1 0
X3Y1Z1 0
X4Y0Z1 0
X4Y1Z1 0
X0Y1Z2 0
X0Y2Z2 0
X1Y1Z2 0
X1Y2Z2 0
X2Y0Z2 0
X2Y1Z2 0
X2Y2Z2 0
X3Y0Z2 0
X3Y1Z2 0
X4Y0Z2 0
X4Y1Z2 0
X0Y1Z3 0
X0Y2Z3 0
X1Y1Z3 0
X1Y2Z3 0
X2Y0Z3 0
X2Y1Z3 0
X2Y2Z3 0
X3Y0Z3 1
X3Y1Z3 1
X4Y0Z3 0
X4Y1Z3 0
X0Y1Z4 0
X0Y2Z4 0
X1Y1Z4 0
X1Y2Z4 0
X2Y0Z4 0
X2Y1Z4 0
X2Y2Z4 0
X3Y0Z4 0
X3Y1Z4 0
X4Y0Z4 0
X4Y1Z4 0
X0Y1Z5 0
X0Y2Z5 0
X1Y1Z5 0
X1Y2Z5 0
X2Y0Z5 1
X2Y1Z5 0
X2Y2Z5 1
X3Y0Z5 0
X3Y1Z5 0
X4Y0Z5 0
X4Y1Z5 0
X0Y1Z6 0
X0Y2Z6 0
X1Y1Z6 0
X1Y2Z6 0
X2Y0Z6 0
X2Y1Z6 0
X2Y2Z6 0
X3Y0Z6 0
X3Y1Z6 0
X4Y0Z6 0
X4Y1Z6 0
X0Y1Z7 0
X0Y2Z7 0
X1Y1Z7 1
X1Y2Z7 1
X2Y0Z7 0
X2Y1Z7 0
X2Y2Z7 0
X3Y0Z7 0
X3Y1Z7 0
X4Y0Z7 0
X4Y1Z7 0
X0Y1Z8 0
X0Y2Z8 0
X1Y1Z8 0
X1Y2Z8 0
X2Y0Z8 1
X2Y1Z8 1
X2Y2Z8 0
X3Y0Z8 0
X3Y1Z8 0
X4Y0Z8 0
X4Y1Z8 0
X0Y1Z9 0
X0Y2Z9 0
X1Y1Z9 0
X1Y2Z9 0
X2Y0Z9 0
X2Y1Z9 0
X2Y2Z9 0
X3Y0Z9 1
X3Y1Z9 1
X4Y0Z9 0
X4Y1Z9 0
X0Y1Z10 0
X0Y2Z10 0
X1Y1Z10 0
X1Y2Z10 0
X2Y0Z10 0
X2Y1Z10 0
X2Y2Z10 0
X3Y0Z10 0
X3Y1Z10 0
X4Y0Z10 1
X4Y1Z10 1
X0Y1Z11 0
X0Y2Z11 0
X1Y1Z11 0
X1Y2Z11 0
X2Y0Z11 0
X2Y1Z11 1
X2Y2Z11 1
X3Y0Z11 0
X3Y1Z11 0
X4Y0Z11 0
X4Y1Z11 0
X0Y1Z12 0
X0Y2Z12 0
X1Y1Z12 0
X1Y2Z12 0
X2Y0Z12 1
X2Y1Z12 1
X2Y2Z12 0
X3Y0Z12 0
X3Y1Z12 0
X4Y0Z12 1
X4Y1Z12 1
X0Y1Z13 0
X0Y2Z13 0
X1Y1Z13 0
X1Y2Z13 0
X2Y0Z13 0
X2Y1Z13 0
X2Y2Z13 0
X3Y0Z13 1
X3Y1Z13 1
X4Y0Z13 0
X4Y1Z13 0
X0Y1Z14 0
X0Y2Z14 0
X1Y1Z14 0
X1Y2Z14 0
X2Y0Z14 0
X2Y1Z14 1
X2Y2Z14 1
X3Y0Z14 0
X3Y1Z14 0
X4Y0Z14 1
X4Y1Z14 1
X0Y1Z15 1
X0Y2Z15 1
X1Y1Z15 1
X1Y2Z15 1
X2Y0Z15 0
X2Y1Z15 1
X2Y2Z15 1
X3Y0Z15 0
X3Y1Z15 0
X4Y0Z15 0
X4Y1Z15 0
X0Y1Z16 0
X0Y2Z16 0
X1Y1Z16 0
X1Y2Z16 0
X2Y0Z16 0
X2Y1Z16 0
X2Y2Z16 0
X3Y0Z16 0
X3Y1Z16 0
X4Y0Z16 0
X4Y1Z16 0
X0Y1Z17 0
X0Y2Z17 0
X1Y1Z17 0
X1Y2Z17 0
X2Y0Z17 0
X2Y1Z17 0
X2Y2Z17 0
X3Y0Z17 0
X3Y1Z17 0
X4Y0Z17 0
X4Y1Z17 0
X0Y1Z18 0
X0Y2Z18 0
X1Y1Z18 0
X1Y2Z18 0
X2Y0Z18 0
X2Y1Z18 1
X2Y2Z18 1
X3Y0Z18 0
X3Y1Z18 0
X4Y0Z18 0
X4Y1Z18 0
X0Y1Z19 0
X0Y2Z19 0
X1Y1Z19 0
X1Y2Z19 0
X2Y0Z19 0
X2Y1Z19 1
X2Y2Z19 1
X3Y0Z19 0
X3Y1Z19 0
X4Y0Z19 0
X4Y1Z19 0
X0Y1Z20 0
X0Y2Z20 0
X1Y1Z20 0
X1Y2Z20 0
X2Y0Z20 1
X2Y1Z20 1
X2Y2Z20 1
X3Y0Z20 1
X3Y1Z20 1
X4Y0Z20 0
X4Y1Z20 0
X0Y1Z21 0
X0Y2Z21 0
X1Y1Z21 0
X1Y2Z21 0
X2Y0Z21 1
X2Y1Z21 0
X2Y2Z21 1
X3Y0Z21 0
X3Y1Z21 0
X4Y0Z21 0
X4Y1Z21 0
X0Y1Z22 1
X0Y2Z22 1
X1Y1Z22 0
X1Y2Z22 0
X2Y0Z22 0
X2Y1Z22 0
X2Y2Z22 0
X3Y0Z22 0
X3Y1Z22 0
X4Y0Z22 0
X4Y1Z22 0
X0Y1Z23 0
X0Y2Z23 0
X1Y1Z23 0
X1Y2Z23 0
X2Y0Z23 0
X2Y1Z23 0
X2Y2Z23 0
X3Y0Z23 1
X3Y1Z23 1
X4Y0Z23 0
X4Y1Z23 0
X0Y1Z24 0
X0Y2Z24 0
X1Y1Z24 0
X1Y2Z24 0
X2Y0Z24 0
X2Y1Z24 1
X2Y2Z24 1
X3Y0Z24 0
X3Y1Z24 0
X4Y0Z24 0
X4Y1Z24 0
X0Y1Z25 0
X0Y2Z25 0
X1Y1Z25 0
X1Y2Z25 0
X2Y0Z25 0
X2Y1Z25 0
X2Y2Z25 0
X3Y0Z25 0
X3Y1Z25 0
X4Y0Z25 0
X4Y1Z25 0
X0Y1Z26 0
X0Y2Z26 0
X1Y1Z26 0
X1Y2Z26 0
X2Y0Z26 0
X2Y1Z26 0
X2Y2Z26 0
X3Y0Z26 0
X3Y1Z26 0
X4Y0Z26 0
X4Y1Z26 0
X0Y1Z27 0
X0Y2Z27 0
X1Y1Z27 0
X1Y2Z27 0
X2Y0Z27 1
X2Y1Z27 0
X2Y2Z27 1
X3Y0Z27 0
X3Y1Z27 0
X4Y0Z27 0
X4Y1Z27 0
X0Y1Z28 1
X0Y2Z28 1
X1Y1Z28 0
X1Y2Z28 0
X2Y0Z28 0
X2Y1Z28 0
X2Y2Z28 0
X3Y0Z28 0
X3Y1Z28 0
X4Y0Z28 0
X4Y1Z28 0
X0Y1Z29 0
X0Y2Z29 0
X1Y1Z29 0
X1Y2Z29 0
X2Y0Z29 0
X2Y1Z29 0
X2Y2Z29 0
X3Y0Z29 0
X3Y1Z29 0
X4Y0Z29 0
X4Y1Z29 0
X0Y1Z30 0
X0Y2Z30 0
X1Y1Z30 1
X1Y2Z30 1
X2Y0Z30 0
X2Y1Z30 0
X2Y2Z30 0
X3Y0Z30 1
X3Y1Z30 1
X4Y0Z30 0
X4Y1Z30 0
X0Y1Z31 0
X0Y2Z31 0
X1Y1Z31 0
X1Y2Z31 0
X2Y0Z31 0
X2Y1Z31 0
X2Y2Z31 0
X3Y0Z31 0
X3Y1Z31 0
X4Y0Z31 0
X4Y1Z31 0
X0Y1Z32 1
X0Y2Z32 1
X1Y1Z32 0
X1Y2Z32 0
X2Y0Z32 0
X2Y1Z32 0
X2Y2Z32 0
X3Y0Z32 0
X3Y1Z32 0
X4Y0Z32 0
X4Y1Z32 0
X0Y1Z33 0
X0Y2Z33 0
X1Y1Z33 0
X1Y2Z33 0
X2Y0Z33 0
X2Y1Z33 0
X2Y2Z33 0
X3Y0Z33 0
X3Y1Z33 0
X4Y0Z33 0
X4Y1Z33 0
X0Y1Z34 1
X0Y2Z34 1
X1Y1Z34 1
X1Y2Z34 1
X2Y0Z34 0
X2Y1Z34 0
X2Y2Z34 0
X3Y0Z34 0
X3Y1Z34 0
X4Y0Z34 0
X4Y1Z34 0
X0Y1Z35 0
X0Y2Z35 0
X1Y1Z35 0
X1Y2Z35 0
X2Y0Z35 0
X2Y1Z35 0
X2Y2Z35 0
X3Y0Z35 1
X3Y1Z35 1
X4Y0Z35 0
X4Y1Z35 0
X0Y1Z36 0
X0Y2Z36 0
X1Y1Z36 0
X1Y2Z36 0
X2Y0Z36 0
X2Y1Z36 0
X2Y2Z36 0
X3Y0Z36 0
X3Y1Z36 0
X4Y0Z36 0
X4Y1Z36 0
X0Y1Z37 1
X0Y2Z37 1
X1Y1Z37 0
X1Y2Z37 0
X2Y0Z37 0
X2Y1Z37 0
X2Y2Z37 0
X3Y0Z37 0
X3Y1Z37 0
X4Y0Z37 0
X4Y1Z37 0
X0Y1Z38 1
X0Y2Z38 1
X1Y1Z38 1
X1Y2Z38 1
X2Y0Z38 0
X2Y1Z38 0
X2Y2Z38 0
X3Y0Z38 0
X3Y1Z38 0
X4Y0Z38 0
X4Y1Z38 0
X0Y1Z39 0
X0Y2Z39 0
X1Y1Z39 1
X1Y2Z39 1
X2Y0Z39 0
X2Y1Z39 0
X2Y2Z39 0
X3Y0Z39 1
X3Y1Z39 1
X4Y0Z39 0
X4Y1Z39 0
X0Y1Z40 0
X0Y2Z40 0
X1Y1Z40 1
X1Y2Z40 1
X2Y0Z40 0
X2Y1Z40 0
X2Y2Z40 0
X3Y0Z40 1
X3Y1Z40 1
X4Y0Z40 0
X4Y1Z40 0
X0Y1Z41 0
X0Y2Z41 0
X1Y1Z41 0
X1Y2Z41 0
X2Y0Z41 1
X2Y1Z41 1
X2Y2Z41 0
X3Y0Z41 0
X3Y1Z41 0
X4Y0Z41 0
X4Y1Z41 0
X0Y1Z42 0
X0Y2Z42 0
X1Y1Z42 0
X1Y2Z42 0
X2Y0Z42 0
X2Y1Z42 0
X2Y2Z42 0
X3Y0Z42 0
X3Y1Z42 0
X4Y0Z42 0
X4Y1Z42 0
X0Y1Z43 0
X0Y2Z43 0
X1Y1Z43 0
X1Y2Z43 0
X2Y0Z43 1
X2Y1Z43 1
X2Y2Z43 0
X3Y0Z43 0
X3Y1Z43 0
X4Y0Z43 0
X4Y1Z43 0
X0Y1Z44 0
X0Y2Z44 0
X1Y1Z44 0
X1Y2Z44 0
X2Y0Z44 0
X2Y1Z44 0
X2Y2Z44 0
X3Y0Z44 0
X3Y1Z44 0
X4Y0Z44 0
X4Y1Z44 0
X0Y1Z45 0
X0Y2Z45 0
X1Y1Z45 0
X1Y2Z45 0
X2Y0Z45 1
X2Y1Z45 1
X2Y2Z45 0
X3Y0Z45 0
X3Y1Z45 0
X4Y0Z45 0
X4Y1Z45 0
X0Y1Z46 1
X0Y2Z46 1
X1Y1Z46 0
X1Y2Z46 0
X2Y0Z46 0
X2Y1Z46 0
X2Y2Z46 0
X3Y0Z46 1
X3Y1Z46 1
X4Y0Z46 0
X4Y1Z46 0
X0Y1Z47 1
X0Y2Z47 1
X1Y1Z47 0
X1Y2Z47 0
X2Y0Z47 0
X2Y1Z47 0
X2Y2Z47 0
X3Y0Z47 0
X3Y1Z47 0
X4Y0Z47 0
X4Y1Z47 0
X0Y1Z48 0
X0Y2Z48 0
X1Y1Z48 0
X1Y2Z48 0
X2Y0Z48 0
X2Y1Z48 0
X2Y2Z48 0
X3Y0Z48 0
X3Y1Z48 0
X4Y0Z48 0
X4Y1Z48 0
X0Y1Z49 1
X0Y2Z49 1
X1Y1Z49 0
X1Y2Z49 0
X2Y0Z49 0
X2Y1Z49 0
X2Y2Z49 0
X3Y0Z49 0
X3Y1Z49 0
X4Y0Z49 0
X4Y1Z49 0
X0Y1Z50 0
X0Y2Z50 0
X1Y1Z50 1
X1Y2Z50 1
X2Y0Z50 1
X2Y1Z50 1
X2Y2Z50 0
X3Y0Z50 0
X3Y1Z50 0
X4Y0Z50 0
X4Y1Z50 0
X0Y1Z51 0
X0Y2Z51 0
X1Y1Z51 0
X1Y2Z51 0
X2Y0Z51 0
X2Y1Z51 0
X2Y2Z51 0
X3Y0Z51 0
X3Y1Z51 0
X4Y0Z51 0
X4Y1Z51 0
X0Y1Z52 0
X0Y2Z52 0
X1Y1Z52 1
X1Y2Z52 1
X2Y0Z52 0
X2Y1Z52 1
X2Y2Z52 1
X3Y0Z52 0
X3Y1Z52 0
X4Y0Z52 0
X4Y1Z52 0
X0Y1Z53 0
X0Y2Z53 0
X1Y1Z53 0
X1Y2Z53 0
X2Y0Z53 1
X2Y1Z53 1
X2Y2Z53 0
X3Y0Z53 0
X3Y1Z53 0
X4Y0Z53 0
X4Y1Z53 0
X0Y1Z54 0
X0Y2Z54 0
X1Y1Z54 0
X1Y2Z54 0
X2Y0Z54 0
X2Y1Z54 0
X2Y2Z54 0
X3Y0Z54 0
X3Y1Z54 0
X4Y0Z54 0
X4Y1Z54 0
X0Y1Z55 0
X0Y2Z55 0
X1Y1Z55 0
X1Y2Z55 0
X2Y0Z55 0
X2Y1Z55 0
X2Y2Z55 0
X3Y0Z55 0
X3Y1Z55 0
X4Y0Z55 0
X4Y1Z55 0
X0Y1Z56 0
X0Y2Z56 0
X1Y1Z56 0
X1Y2Z56 0
X2Y0Z56 0
X2Y1Z56 1
X2Y2Z56 1
X3Y0Z56 1
X3Y1Z56 1
X4Y0Z56 0
X4Y1Z56 0
X0Y1Z57 0
X0Y2Z57 0
X1Y1Z57 0
X1Y2Z57 0
X2Y0Z57 0
X2Y1Z57 0
X2Y2Z57 0
X3Y0Z57 0
X3Y1Z57 0
X4Y0Z57 0
X4Y1Z57 0
X0Y1Z58 1
X0Y2Z58 1
X1Y1Z58 0
X1Y2Z58 0
X2Y0Z58 0
X2Y1Z58 1
X2Y2Z58 1
X3Y0Z58 0
X3Y1Z58 0
X4Y0Z58 0
X4Y1Z58 0
X0Y1Z59 1
X0Y2Z59 1
X1Y1Z59 0
X1Y2Z59 0
X2Y0Z59 0
X2Y1Z59 0
X2Y2Z59 0
X3Y0Z59 0
X3Y1Z59 0
X4Y0Z59 0
X4Y1Z59 0
X0Y1Z60 1
X0Y2Z60 1
X1Y1Z60 0
X1Y2Z60 0
X2Y0Z60 0
X2Y1Z60 0
X2Y2Z60 0
X3Y0Z60 0
X3Y1Z60 0
X4Y0Z60 0
X4Y1Z60 0
X0Y1Z61 0
X0Y2Z61 0
X1Y1Z61 0
X1Y2Z61 0
X2Y0Z61 1
X2Y1Z61 1
X2Y2Z61 1
X3Y0Z61 0
X3Y1Z61 0
X4Y0Z61 0
X4Y1Z61 0
X0Y1Z62 0
X0Y2Z62 0
X1Y1Z62 0
X1Y2Z62 0
X2Y0Z62 1
X2Y1Z62 1
X2Y2Z62 1
X3Y0Z62 0
X3Y1Z62 0
X4Y0Z62 0
X4Y1Z62 0
X0Y1Z63 0
X0Y2Z63 0
X1Y1Z63 0
X1Y2Z63 0
X2Y0Z63 0
X2Y1Z63 0
X2Y2Z63 0
X3Y0Z63 0
X3Y1Z63 0
X4Y0Z63 1
X4Y1Z63 1
X0Z0 0
X0Z1 0
X0Z2 0
X0Z3 0
X0Z4 0
X0Z5 0
X0Z6 0
X0Z7 0
X0Z8 0
X0Z9 0
X0Z10 0
X0Z11 0
X0Z12 0
X0Z13 0
X0Z14 0
X0Z15 1
X0Z16 0
X0Z17 0
X0Z18 0
X0Z19 0
X0Z20 0
X0Z21 0
X0Z22 1
X0Z23 0
X0Z24 0
X0Z25 0
X0Z26 0
X0Z27 0
X0Z28 1
X0Z29 0
X0Z30 0
X0Z31 0
X0Z32 1
X0Z33 0
X0Z34 1
X0Z35 0
X0Z36 0
X0Z37 1
X0Z38 1
X0Z39 0
X0Z40 0
X0Z41 0
X0Z42 0
X0Z43 0
X0Z44 0
X0Z45 0
X0Z46 1
X0Z47 1
X0Z48 0
X0Z49 1
X0Z50 0
X0Z51 0
X0Z52 0
X0Z53 0
X0Z54 0
X0Z55 0
X0Z56 0
X0Z57 0
X0Z58 1
X0Z59 1
X0Z60 1
X0Z61 0
X0Z62 0
X0Z63 0
X1Z0 0
X1Z1 0
X1Z2 0
X1Z3 0
X1Z4 0
X1Z5 0
X1Z6 0
X1Z7 1
X1Z8 0
X1Z9 0
X1Z10 0
X1Z11 0
X1Z12 0
X1Z13 0
X1Z14 0
X1Z15 1
X1Z16 0
X1Z17 0
X1Z18 0
X1Z19 0
X1Z20 0
X1Z21 0
X1Z22 0
X1Z23 0
X1Z24 0
X1Z25 0
X1Z26 0
X1Z27 0
X1Z28 0
X1Z29 0
X1Z30 1
X1Z31 0
X1Z32 0
X1Z33 0
X1Z34 1
X1Z35 0
X1Z36 0
X1Z37 0
X1Z38 1
X1Z39 1
X1Z40 1
X1Z41 0
X1Z42 0
X1Z43 0
X1Z44 0
X1Z45 0
X1Z46 0
X1Z47 0
X1Z48 0
X1Z49 0
X1Z50 1
X1Z51 0
X1Z52 1
X1Z53 0
X1Z54 0
X1Z55 0
X1Z56 0
X1Z57 0
X1Z58 0
X1Z59 0
X1Z60 0
X1Z61 0
X1Z62 0
X1Z63 0
X2Z0 1
X2Z1 1
X2Z2 0
X2Z3 0
X2Z4 0
X2Z5 1
X2Z6 0
X2Z7 0
X2Z8 1
X2Z9 0
X2Z10 0
X2Z11 1
X2Z12 1
X2Z13 0
X2Z14 1
X2Z15 1
X2Z16 0
X2Z17 0
X2Z18 1
X2Z19 1
X2Z20 1
X2Z21 1
X2Z22 0
X2Z23 0
X2Z24 1
X2Z25 0
X2Z26 0
X2Z27 1
X2Z28 0
X2Z29 0
X2Z30 0
X2Z31 0
X2Z32 0
X2Z33 0
X2Z34 0
X2Z35 0
X2Z36 0
X2Z37 0
X2Z38 0
X2Z39 0
X2Z40 0
X2Z41 1
X2Z42 0
X2Z43 1
X2Z44 0
X2Z45 1
X2Z46 0
X2Z47 0
X2Z48 0
X2Z49 0
X2Z50 1
X2Z51 0
X2Z52 1
X2Z53 1
X2Z54 0
X2Z55 0
X2Z56 1
X2Z57 0
X2Z58 1
X2Z59 0
X2Z60 0
X2Z61 1
X2Z62 1
X2Z63 0
X3Z0 0
X3Z1 0
X3Z2 0
X3Z3 1
X3Z4 0
X3Z5 0
X3Z6 0
X3Z7 0
X3Z8 0
X3Z9 1
X3Z10 0
X3Z11 0
X3Z12 0
X3Z13 1
X3Z14 0
X3Z15 0
X3Z16 0
X3Z17 0
X3Z18 0
X3Z19 0
X3Z20 1
X3Z21 0
X3Z22 0
X3Z23 1
X3Z24 0
X3Z25 0
X3Z26 0
X3Z27 0
X3Z28 0
X3Z29 0
X3Z30 1
X3Z31 0
X3Z32 0
X3Z33 0
X3Z34 0
X3Z35 1
X3Z36 0
X3Z37 0
X3Z38 0
X3Z39 1
X3Z40 1
X3Z41 0
X3Z42 0
X3Z43 0
X3Z44 0
X3Z45 0
X3Z46 1
X3Z47 0
X3Z48 0
X3Z49 0
X3Z50 0
X3Z51 0
X3Z52 0
X3Z53 0
X3Z54 0
X3Z55 0
X3Z56 1
X3Z57 0
X3Z58 0
X3Z59 0
X3Z60 0
X3Z61 0
X3Z62 0
X3Z63 0
X4Z0 0
X4Z1 0
X4Z2 0
X4Z3 0
X4Z4 0
X4Z5 0
X4Z6 0
X4Z7 0
X4Z8 0
X4Z9 0
X4Z10 1
X4Z11 0
X4Z12 1
X4Z13 0
X4Z14 1
X4Z15 0
X4Z16 0
X4Z17 0
X4Z18 0
X4Z19 0
X4Z20 0
X4Z21 0
X4Z22 0
X4Z23 0
X4Z24 0
X4Z25 0
X4Z26 0
X4Z27 0
X4Z28 0
X4Z29 0
X4Z30 0
X4Z31 0
X4Z32 0
X4Z33 0
X4Z34 0
X4Z35 0
X4Z36 0
X4Z37 0
X4Z38 0
X4Z39 0
X4Z40 0
X4Z41 0
X4Z42 0
X4Z43 0
X4Z44 0
X4Z45 0
X4Z46 0
X4Z47 0
X4Z48 0
X4Z49 0
X4Z50 0
X4Z51 0
X4Z52 0
X4Z53 0
X4Z54 0
X4Z55 0
X4Z56 0
X4Z57 0
X4Z58 0
X4Z59 0
X4Z60 0
X4Z61 0
X4Z62 0
X4Z63 1
